#25_4_6_10_random# 25 4 106 1000000000
4 4 4 4 4 4 4 4 4 4 4 4 4 4 4 4 4 4 4 4 4 4 4 4 4 
2 0 15 0 16
0 0 99
0 1 69
0 2 10
0 3 95
1 0 44
1 1 46
1 2 41
1 3 78
2 0 30
2 1 93
2 2 59
2 3 34
3 0 12
3 1 61
3 2 74
3 3 73
2 0 11 0 16
0 0 31
0 1 81
0 2 76
0 3 17
1 0 34
1 1 90
1 2 45
1 3 80
2 0 99
2 1 89
2 2 15
2 3 49
3 0 32
3 1 86
3 2 68
3 3 39
2 0 21 0 16
0 0 30
0 1 47
0 2 8
0 3 12
1 0 15
1 1 53
1 2 28
1 3 35
2 0 45
2 1 36
2 2 91
2 3 62
3 0 74
3 1 56
3 2 23
3 3 97
2 0 5 0 16
0 0 19
0 1 28
0 2 44
0 3 30
1 0 15
1 1 48
1 2 71
1 3 6
2 0 26
2 1 30
2 2 64
2 3 45
3 0 97
3 1 68
3 2 78
3 3 12
2 0 13 0 16
0 0 30
0 1 36
0 2 41
0 3 28
1 0 51
1 1 77
1 2 53
1 3 36
2 0 19
2 1 17
2 2 29
2 3 27
3 0 63
3 1 92
3 2 39
3 3 15
2 1 2 0 16
0 0 65
0 1 32
0 2 50
0 3 68
1 0 12
1 1 45
1 2 60
1 3 89
2 0 29
2 1 17
2 2 10
2 3 84
3 0 2
3 1 16
3 2 93
3 3 37
2 1 3 0 16
0 0 39
0 1 23
0 2 24
0 3 71
1 0 36
1 1 76
1 2 28
1 3 84
2 0 16
2 1 30
2 2 82
2 3 55
3 0 62
3 1 6
3 2 11
3 3 90
2 1 6 0 16
0 0 43
0 1 54
0 2 30
0 3 18
1 0 99
1 1 29
1 2 9
1 3 4
2 0 77
2 1 14
2 2 11
2 3 9
3 0 83
3 1 51
3 2 34
3 3 62
2 1 7 0 16
0 0 17
0 1 71
0 2 23
0 3 89
1 0 96
1 1 30
1 2 55
1 3 9
2 0 73
2 1 73
2 2 49
2 3 53
3 0 97
3 1 81
3 2 52
3 3 69
2 1 10 0 16
0 0 85
0 1 89
0 2 48
0 3 67
1 0 100
1 1 79
1 2 94
1 3 98
2 0 70
2 1 17
2 2 5
2 3 23
3 0 22
3 1 56
3 2 11
3 3 94
2 1 13 0 16
0 0 60
0 1 66
0 2 12
0 3 93
1 0 38
1 1 57
1 2 47
1 3 73
2 0 76
2 1 38
2 2 61
2 3 93
3 0 80
3 1 85
3 2 82
3 3 65
2 1 15 0 16
0 0 49
0 1 83
0 2 13
0 3 79
1 0 17
1 1 18
1 2 66
1 3 76
2 0 55
2 1 74
2 2 11
2 3 75
3 0 85
3 1 50
3 2 99
3 3 59
2 1 16 0 16
0 0 57
0 1 26
0 2 68
0 3 43
1 0 25
1 1 37
1 2 16
1 3 72
2 0 3
2 1 62
2 2 59
2 3 61
3 0 79
3 1 38
3 2 82
3 3 92
2 2 3 0 16
0 0 47
0 1 51
0 2 100
0 3 74
1 0 3
1 1 70
1 2 62
1 3 57
2 0 21
2 1 33
2 2 98
2 3 42
3 0 54
3 1 34
3 2 26
3 3 56
2 2 8 0 16
0 0 13
0 1 50
0 2 81
0 3 77
1 0 67
1 1 67
1 2 8
1 3 75
2 0 67
2 1 71
2 2 6
2 3 1
3 0 74
3 1 11
3 2 32
3 3 43
2 2 9 0 16
0 0 91
0 1 43
0 2 42
0 3 91
1 0 37
1 1 29
1 2 71
1 3 55
2 0 71
2 1 25
2 2 16
2 3 24
3 0 13
3 1 67
3 2 89
3 3 15
2 2 13 0 16
0 0 94
0 1 3
0 2 83
0 3 49
1 0 10
1 1 80
1 2 36
1 3 43
2 0 4
2 1 80
2 2 74
2 3 25
3 0 20
3 1 37
3 2 64
3 3 39
2 2 14 0 16
0 0 73
0 1 39
0 2 24
0 3 15
1 0 39
1 1 70
1 2 16
1 3 8
2 0 31
2 1 33
2 2 71
2 3 7
3 0 54
3 1 71
3 2 76
3 3 22
2 2 15 0 16
0 0 23
0 1 33
0 2 50
0 3 1
1 0 67
1 1 49
1 2 30
1 3 78
2 0 78
2 1 94
2 2 11
2 3 86
3 0 60
3 1 41
3 2 85
3 3 43
2 2 16 0 16
0 0 8
0 1 38
0 2 95
0 3 80
1 0 45
1 1 61
1 2 25
1 3 58
2 0 5
2 1 89
2 2 30
2 3 65
3 0 58
3 1 68
3 2 70
3 3 69
2 2 18 0 16
0 0 5
0 1 2
0 2 31
0 3 87
1 0 1
1 1 83
1 2 42
1 3 18
2 0 17
2 1 99
2 2 4
2 3 60
3 0 6
3 1 23
3 2 45
3 3 54
2 2 21 0 16
0 0 28
0 1 39
0 2 97
0 3 62
1 0 47
1 1 69
1 2 95
1 3 85
2 0 28
2 1 9
2 2 29
2 3 41
3 0 45
3 1 31
3 2 83
3 3 5
2 2 22 0 16
0 0 75
0 1 70
0 2 13
0 3 94
1 0 53
1 1 37
1 2 98
1 3 100
2 0 65
2 1 43
2 2 76
2 3 32
3 0 74
3 1 15
3 2 63
3 3 69
2 3 7 0 16
0 0 16
0 1 29
0 2 70
0 3 62
1 0 97
1 1 67
1 2 51
1 3 8
2 0 36
2 1 11
2 2 84
2 3 43
3 0 42
3 1 8
3 2 85
3 3 89
2 3 10 0 16
0 0 34
0 1 40
0 2 94
0 3 89
1 0 36
1 1 68
1 2 12
1 3 83
2 0 66
2 1 50
2 2 30
2 3 99
3 0 70
3 1 68
3 2 21
3 3 71
2 3 11 0 16
0 0 28
0 1 82
0 2 21
0 3 68
1 0 74
1 1 41
1 2 94
1 3 95
2 0 67
2 1 34
2 2 81
2 3 59
3 0 73
3 1 97
3 2 28
3 3 25
2 3 14 0 16
0 0 57
0 1 97
0 2 100
0 3 60
1 0 53
1 1 43
1 2 74
1 3 30
2 0 80
2 1 12
2 2 73
2 3 76
3 0 31
3 1 81
3 2 52
3 3 38
2 3 17 0 16
0 0 92
0 1 89
0 2 27
0 3 60
1 0 89
1 1 77
1 2 31
1 3 7
2 0 8
2 1 5
2 2 6
2 3 57
3 0 71
3 1 75
3 2 64
3 3 11
2 3 18 0 16
0 0 86
0 1 60
0 2 61
0 3 74
1 0 56
1 1 41
1 2 78
1 3 40
2 0 39
2 1 34
2 2 65
2 3 45
3 0 81
3 1 95
3 2 33
3 3 35
2 3 19 0 16
0 0 38
0 1 45
0 2 27
0 3 36
1 0 6
1 1 80
1 2 35
1 3 60
2 0 83
2 1 31
2 2 25
2 3 94
3 0 20
3 1 92
3 2 78
3 3 8
2 3 20 0 16
0 0 54
0 1 28
0 2 38
0 3 99
1 0 60
1 1 39
1 2 65
1 3 15
2 0 72
2 1 46
2 2 48
2 3 73
3 0 2
3 1 96
3 2 48
3 3 85
2 4 7 0 16
0 0 93
0 1 80
0 2 70
0 3 64
1 0 43
1 1 75
1 2 6
1 3 48
2 0 75
2 1 79
2 2 53
2 3 54
3 0 67
3 1 66
3 2 28
3 3 65
2 4 9 0 16
0 0 97
0 1 33
0 2 34
0 3 93
1 0 56
1 1 24
1 2 75
1 3 46
2 0 73
2 1 3
2 2 87
2 3 41
3 0 85
3 1 72
3 2 35
3 3 31
2 4 11 0 16
0 0 60
0 1 43
0 2 67
0 3 79
1 0 71
1 1 50
1 2 74
1 3 31
2 0 94
2 1 76
2 2 35
2 3 45
3 0 75
3 1 17
3 2 8
3 3 32
2 4 18 0 16
0 0 10
0 1 48
0 2 22
0 3 37
1 0 28
1 1 71
1 2 20
1 3 15
2 0 93
2 1 56
2 2 44
2 3 10
3 0 14
3 1 51
3 2 35
3 3 84
2 4 21 0 16
0 0 38
0 1 18
0 2 42
0 3 68
1 0 2
1 1 83
1 2 55
1 3 23
2 0 2
2 1 18
2 2 76
2 3 74
3 0 22
3 1 67
3 2 64
3 3 5
2 4 24 0 16
0 0 52
0 1 28
0 2 38
0 3 49
1 0 50
1 1 71
1 2 9
1 3 86
2 0 34
2 1 18
2 2 100
2 3 15
3 0 67
3 1 96
3 2 33
3 3 54
2 5 7 0 16
0 0 28
0 1 85
0 2 50
0 3 85
1 0 42
1 1 99
1 2 24
1 3 1
2 0 87
2 1 64
2 2 58
2 3 88
3 0 27
3 1 58
3 2 90
3 3 18
2 5 8 0 16
0 0 87
0 1 76
0 2 90
0 3 46
1 0 72
1 1 20
1 2 85
1 3 17
2 0 90
2 1 37
2 2 2
2 3 33
3 0 81
3 1 100
3 2 71
3 3 4
2 5 10 0 16
0 0 88
0 1 24
0 2 67
0 3 65
1 0 89
1 1 100
1 2 46
1 3 3
2 0 22
2 1 32
2 2 92
2 3 29
3 0 97
3 1 36
3 2 14
3 3 3
2 5 15 0 16
0 0 60
0 1 77
0 2 4
0 3 24
1 0 38
1 1 44
1 2 58
1 3 56
2 0 60
2 1 23
2 2 50
2 3 47
3 0 58
3 1 92
3 2 36
3 3 31
2 5 16 0 16
0 0 89
0 1 74
0 2 85
0 3 16
1 0 29
1 1 11
1 2 90
1 3 80
2 0 51
2 1 59
2 2 62
2 3 48
3 0 11
3 1 6
3 2 68
3 3 30
2 5 17 0 16
0 0 29
0 1 54
0 2 82
0 3 69
1 0 40
1 1 23
1 2 87
1 3 15
2 0 66
2 1 13
2 2 43
2 3 98
3 0 96
3 1 52
3 2 42
3 3 8
2 5 24 0 16
0 0 80
0 1 46
0 2 6
0 3 2
1 0 50
1 1 98
1 2 29
1 3 56
2 0 100
2 1 64
2 2 12
2 3 86
3 0 18
3 1 28
3 2 83
3 3 3
2 6 8 0 16
0 0 100
0 1 64
0 2 3
0 3 57
1 0 49
1 1 14
1 2 89
1 3 3
2 0 55
2 1 1
2 2 50
2 3 81
3 0 25
3 1 78
3 2 58
3 3 30
2 6 9 0 16
0 0 41
0 1 81
0 2 3
0 3 42
1 0 45
1 1 25
1 2 68
1 3 26
2 0 16
2 1 93
2 2 25
2 3 60
3 0 9
3 1 88
3 2 67
3 3 42
2 6 11 0 16
0 0 10
0 1 49
0 2 15
0 3 20
1 0 71
1 1 55
1 2 21
1 3 17
2 0 90
2 1 76
2 2 84
2 3 13
3 0 43
3 1 89
3 2 6
3 3 40
2 6 12 0 16
0 0 53
0 1 88
0 2 1
0 3 74
1 0 63
1 1 93
1 2 14
1 3 8
2 0 47
2 1 43
2 2 90
2 3 46
3 0 90
3 1 33
3 2 10
3 3 11
2 6 16 0 16
0 0 28
0 1 96
0 2 88
0 3 29
1 0 38
1 1 15
1 2 14
1 3 69
2 0 42
2 1 37
2 2 18
2 3 68
3 0 55
3 1 69
3 2 100
3 3 68
2 6 18 0 16
0 0 28
0 1 48
0 2 9
0 3 47
1 0 99
1 1 85
1 2 59
1 3 47
2 0 66
2 1 72
2 2 87
2 3 5
3 0 63
3 1 94
3 2 88
3 3 31
2 6 22 0 16
0 0 25
0 1 89
0 2 99
0 3 95
1 0 47
1 1 85
1 2 42
1 3 80
2 0 17
2 1 75
2 2 58
2 3 35
3 0 64
3 1 28
3 2 34
3 3 5
2 7 8 0 16
0 0 38
0 1 77
0 2 73
0 3 3
1 0 78
1 1 30
1 2 29
1 3 21
2 0 36
2 1 36
2 2 13
2 3 86
3 0 47
3 1 78
3 2 44
3 3 62
2 7 9 0 16
0 0 42
0 1 63
0 2 35
0 3 22
1 0 58
1 1 53
1 2 42
1 3 25
2 0 56
2 1 57
2 2 46
2 3 1
3 0 16
3 1 21
3 2 42
3 3 56
2 7 10 0 16
0 0 25
0 1 14
0 2 91
0 3 91
1 0 46
1 1 18
1 2 31
1 3 82
2 0 57
2 1 45
2 2 83
2 3 39
3 0 93
3 1 22
3 2 4
3 3 73
2 7 19 0 16
0 0 92
0 1 98
0 2 87
0 3 3
1 0 27
1 1 90
1 2 54
1 3 6
2 0 30
2 1 89
2 2 38
2 3 99
3 0 61
3 1 36
3 2 5
3 3 69
2 7 20 0 16
0 0 82
0 1 100
0 2 85
0 3 58
1 0 20
1 1 5
1 2 45
1 3 73
2 0 68
2 1 17
2 2 82
2 3 2
3 0 54
3 1 77
3 2 6
3 3 24
2 7 24 0 16
0 0 84
0 1 13
0 2 85
0 3 75
1 0 40
1 1 66
1 2 22
1 3 26
2 0 36
2 1 64
2 2 1
2 3 93
3 0 65
3 1 7
3 2 53
3 3 69
2 8 10 0 16
0 0 7
0 1 58
0 2 87
0 3 13
1 0 38
1 1 55
1 2 84
1 3 86
2 0 6
2 1 76
2 2 24
2 3 10
3 0 77
3 1 41
3 2 100
3 3 67
2 8 14 0 16
0 0 29
0 1 45
0 2 28
0 3 98
1 0 34
1 1 49
1 2 51
1 3 3
2 0 2
2 1 8
2 2 89
2 3 83
3 0 11
3 1 69
3 2 58
3 3 30
2 8 16 0 16
0 0 67
0 1 85
0 2 97
0 3 5
1 0 76
1 1 16
1 2 86
1 3 88
2 0 73
2 1 86
2 2 3
2 3 12
3 0 59
3 1 47
3 2 86
3 3 75
2 8 19 0 16
0 0 12
0 1 21
0 2 46
0 3 82
1 0 49
1 1 63
1 2 77
1 3 69
2 0 25
2 1 32
2 2 47
2 3 27
3 0 9
3 1 46
3 2 96
3 3 47
2 8 21 0 16
0 0 1
0 1 2
0 2 70
0 3 15
1 0 5
1 1 34
1 2 92
1 3 99
2 0 72
2 1 11
2 2 95
2 3 79
3 0 16
3 1 36
3 2 7
3 3 36
2 9 12 0 16
0 0 56
0 1 99
0 2 26
0 3 14
1 0 51
1 1 21
1 2 92
1 3 48
2 0 62
2 1 97
2 2 25
2 3 63
3 0 2
3 1 8
3 2 55
3 3 91
2 9 13 0 16
0 0 91
0 1 77
0 2 42
0 3 87
1 0 12
1 1 89
1 2 58
1 3 36
2 0 89
2 1 13
2 2 26
2 3 52
3 0 14
3 1 49
3 2 80
3 3 85
2 9 14 0 16
0 0 100
0 1 44
0 2 77
0 3 97
1 0 93
1 1 70
1 2 55
1 3 53
2 0 86
2 1 49
2 2 95
2 3 97
3 0 44
3 1 23
3 2 52
3 3 95
2 9 15 0 16
0 0 50
0 1 87
0 2 87
0 3 90
1 0 71
1 1 57
1 2 20
1 3 6
2 0 84
2 1 52
2 2 59
2 3 56
3 0 91
3 1 31
3 2 43
3 3 5
2 9 16 0 16
0 0 3
0 1 82
0 2 17
0 3 46
1 0 53
1 1 40
1 2 61
1 3 55
2 0 98
2 1 61
2 2 84
2 3 65
3 0 26
3 1 26
3 2 37
3 3 90
2 9 18 0 16
0 0 10
0 1 10
0 2 3
0 3 68
1 0 48
1 1 46
1 2 71
1 3 71
2 0 37
2 1 88
2 2 3
2 3 53
3 0 100
3 1 84
3 2 8
3 3 61
2 9 19 0 16
0 0 37
0 1 24
0 2 12
0 3 76
1 0 23
1 1 4
1 2 15
1 3 12
2 0 58
2 1 100
2 2 28
2 3 1
3 0 95
3 1 99
3 2 44
3 3 56
2 9 23 0 16
0 0 69
0 1 93
0 2 35
0 3 51
1 0 23
1 1 6
1 2 45
1 3 45
2 0 19
2 1 25
2 2 2
2 3 89
3 0 32
3 1 71
3 2 4
3 3 29
2 9 24 0 16
0 0 37
0 1 72
0 2 91
0 3 66
1 0 92
1 1 97
1 2 45
1 3 82
2 0 28
2 1 83
2 2 8
2 3 63
3 0 2
3 1 35
3 2 37
3 3 17
2 10 11 0 16
0 0 41
0 1 32
0 2 36
0 3 8
1 0 46
1 1 36
1 2 100
1 3 7
2 0 1
2 1 55
2 2 35
2 3 48
3 0 67
3 1 2
3 2 52
3 3 13
2 10 17 0 16
0 0 4
0 1 84
0 2 34
0 3 4
1 0 19
1 1 79
1 2 52
1 3 62
2 0 58
2 1 2
2 2 66
2 3 33
3 0 2
3 1 96
3 2 14
3 3 59
2 10 21 0 16
0 0 1
0 1 28
0 2 28
0 3 44
1 0 83
1 1 41
1 2 9
1 3 45
2 0 33
2 1 68
2 2 65
2 3 77
3 0 48
3 1 67
3 2 37
3 3 86
2 10 22 0 16
0 0 56
0 1 49
0 2 72
0 3 26
1 0 3
1 1 41
1 2 43
1 3 34
2 0 27
2 1 93
2 2 8
2 3 21
3 0 76
3 1 100
3 2 44
3 3 85
2 11 15 0 16
0 0 73
0 1 20
0 2 56
0 3 4
1 0 44
1 1 32
1 2 42
1 3 6
2 0 45
2 1 58
2 2 7
2 3 71
3 0 5
3 1 28
3 2 34
3 3 62
2 11 19 0 16
0 0 100
0 1 25
0 2 85
0 3 55
1 0 59
1 1 82
1 2 11
1 3 50
2 0 87
2 1 92
2 2 18
2 3 87
3 0 81
3 1 75
3 2 36
3 3 62
2 12 14 0 16
0 0 20
0 1 21
0 2 70
0 3 61
1 0 81
1 1 23
1 2 29
1 3 36
2 0 29
2 1 78
2 2 84
2 3 100
3 0 70
3 1 8
3 2 24
3 3 67
2 12 16 0 16
0 0 92
0 1 85
0 2 41
0 3 38
1 0 25
1 1 13
1 2 55
1 3 89
2 0 95
2 1 60
2 2 53
2 3 64
3 0 37
3 1 51
3 2 92
3 3 10
2 12 21 0 16
0 0 12
0 1 28
0 2 65
0 3 68
1 0 79
1 1 38
1 2 95
1 3 22
2 0 84
2 1 15
2 2 31
2 3 34
3 0 70
3 1 45
3 2 67
3 3 60
2 12 22 0 16
0 0 97
0 1 81
0 2 29
0 3 55
1 0 53
1 1 93
1 2 76
1 3 38
2 0 27
2 1 67
2 2 4
2 3 21
3 0 82
3 1 12
3 2 4
3 3 74
2 12 23 0 16
0 0 47
0 1 38
0 2 73
0 3 13
1 0 17
1 1 61
1 2 92
1 3 40
2 0 59
2 1 43
2 2 4
2 3 59
3 0 97
3 1 36
3 2 23
3 3 22
2 13 17 0 16
0 0 68
0 1 81
0 2 84
0 3 79
1 0 50
1 1 20
1 2 23
1 3 42
2 0 52
2 1 61
2 2 54
2 3 52
3 0 41
3 1 57
3 2 51
3 3 37
2 13 18 0 16
0 0 76
0 1 78
0 2 82
0 3 47
1 0 13
1 1 29
1 2 77
1 3 62
2 0 21
2 1 90
2 2 75
2 3 80
3 0 16
3 1 26
3 2 42
3 3 53
2 13 19 0 16
0 0 77
0 1 16
0 2 33
0 3 100
1 0 71
1 1 48
1 2 65
1 3 50
2 0 56
2 1 6
2 2 93
2 3 61
3 0 53
3 1 98
3 2 72
3 3 84
2 13 21 0 16
0 0 14
0 1 73
0 2 87
0 3 79
1 0 33
1 1 50
1 2 90
1 3 67
2 0 85
2 1 99
2 2 3
2 3 30
3 0 49
3 1 99
3 2 38
3 3 59
2 13 24 0 16
0 0 30
0 1 82
0 2 59
0 3 3
1 0 22
1 1 50
1 2 26
1 3 42
2 0 23
2 1 29
2 2 79
2 3 25
3 0 40
3 1 87
3 2 92
3 3 65
2 14 16 0 16
0 0 1
0 1 70
0 2 25
0 3 5
1 0 69
1 1 42
1 2 30
1 3 95
2 0 89
2 1 84
2 2 76
2 3 98
3 0 96
3 1 84
3 2 67
3 3 4
2 14 17 0 16
0 0 40
0 1 15
0 2 41
0 3 77
1 0 97
1 1 41
1 2 41
1 3 33
2 0 3
2 1 23
2 2 47
2 3 95
3 0 54
3 1 57
3 2 100
3 3 61
2 14 19 0 16
0 0 27
0 1 34
0 2 71
0 3 62
1 0 7
1 1 92
1 2 39
1 3 94
2 0 94
2 1 59
2 2 33
2 3 65
3 0 40
3 1 83
3 2 61
3 3 70
2 14 21 0 16
0 0 40
0 1 82
0 2 71
0 3 48
1 0 56
1 1 72
1 2 64
1 3 67
2 0 47
2 1 11
2 2 43
2 3 64
3 0 55
3 1 12
3 2 96
3 3 44
2 14 23 0 16
0 0 97
0 1 81
0 2 94
0 3 48
1 0 28
1 1 20
1 2 11
1 3 4
2 0 6
2 1 93
2 2 5
2 3 40
3 0 3
3 1 63
3 2 42
3 3 96
2 15 19 0 16
0 0 63
0 1 30
0 2 84
0 3 89
1 0 81
1 1 20
1 2 52
1 3 91
2 0 86
2 1 15
2 2 15
2 3 91
3 0 94
3 1 89
3 2 80
3 3 17
2 15 21 0 16
0 0 54
0 1 6
0 2 30
0 3 49
1 0 92
1 1 90
1 2 18
1 3 25
2 0 71
2 1 92
2 2 35
2 3 39
3 0 18
3 1 93
3 2 64
3 3 21
2 15 23 0 16
0 0 95
0 1 1
0 2 95
0 3 88
1 0 26
1 1 75
1 2 17
1 3 45
2 0 64
2 1 86
2 2 2
2 3 79
3 0 84
3 1 35
3 2 9
3 3 43
2 16 18 0 16
0 0 77
0 1 44
0 2 3
0 3 23
1 0 14
1 1 42
1 2 13
1 3 42
2 0 84
2 1 30
2 2 96
2 3 16
3 0 13
3 1 16
3 2 4
3 3 15
2 16 20 0 16
0 0 54
0 1 52
0 2 81
0 3 100
1 0 43
1 1 96
1 2 44
1 3 93
2 0 66
2 1 55
2 2 85
2 3 26
3 0 91
3 1 51
3 2 20
3 3 47
2 16 21 0 16
0 0 63
0 1 49
0 2 92
0 3 5
1 0 82
1 1 11
1 2 8
1 3 43
2 0 22
2 1 72
2 2 64
2 3 18
3 0 17
3 1 45
3 2 8
3 3 39
2 16 22 0 16
0 0 35
0 1 94
0 2 50
0 3 96
1 0 93
1 1 70
1 2 49
1 3 7
2 0 55
2 1 15
2 2 93
2 3 74
3 0 61
3 1 88
3 2 31
3 3 50
2 16 24 0 16
0 0 83
0 1 72
0 2 43
0 3 61
1 0 66
1 1 67
1 2 97
1 3 24
2 0 89
2 1 98
2 2 84
2 3 27
3 0 88
3 1 67
3 2 75
3 3 75
2 17 20 0 16
0 0 37
0 1 9
0 2 22
0 3 70
1 0 34
1 1 39
1 2 100
1 3 42
2 0 27
2 1 11
2 2 70
2 3 2
3 0 92
3 1 93
3 2 1
3 3 29
2 17 21 0 16
0 0 96
0 1 25
0 2 26
0 3 13
1 0 41
1 1 82
1 2 78
1 3 39
2 0 18
2 1 67
2 2 74
2 3 44
3 0 3
3 1 41
3 2 46
3 3 85
2 18 20 0 16
0 0 75
0 1 29
0 2 24
0 3 19
1 0 81
1 1 93
1 2 84
1 3 91
2 0 31
2 1 19
2 2 89
2 3 83
3 0 93
3 1 78
3 2 47
3 3 39
2 20 23 0 16
0 0 70
0 1 60
0 2 32
0 3 82
1 0 1
1 1 83
1 2 2
1 3 87
2 0 74
2 1 97
2 2 8
2 3 38
3 0 25
3 1 94
3 2 17
3 3 35
2 21 23 0 16
0 0 39
0 1 13
0 2 27
0 3 28
1 0 29
1 1 51
1 2 64
1 3 57
2 0 66
2 1 11
2 2 78
2 3 41
3 0 68
3 1 82
3 2 41
3 3 16
2 22 24 0 16
0 0 5
0 1 77
0 2 20
0 3 29
1 0 23
1 1 89
1 2 68
1 3 9
2 0 72
2 1 30
2 2 83
2 3 32
3 0 63
3 1 44
3 2 73
3 3 23
